#if 0
* Old card tag was: ghTITLE
* Old card tag was: error
* Old card tag was: error
* Old card tag was: error
* Old card tag was: error
* Old card tag was: error
error
#endif
#if 0
* Old card tag was: H2 Beam
* Old card tag was: error
* Old card tag was: error
* Old card tag was: error
* Old card tag was: error
* Old card tag was: error
error
#endif
GLOBAL         1000.       0.0       0.0       0.0        1.
DEFAULTS                                                              NEW-DEFA
* Beam Energy/momentum per nucleon
BEAM            47.6                                                  HEAVYION
* Ion Definition
HI-PROPE         82.      208.
* Enable all recoils and couple to DPMJET
EVENTYPE                              2.                              DPMJET
DPMJET                     19.       1.0
#if 0
* Set thresholds for pair/bremsstrahlung
PAIRBREM         3.0              0.0001  HYDROGEN  @LASTMAT
#endif
#if 0
* Set thresholds for delta ray production
DELTARAY                                  HYDROGEN  @LASTMAT
#endif
#if 0
PHYSICS           1.                                                  COALESCE
#endif
BEAMPOS          0.0       0.0       0.0 .00149923  0.000506
GEOBEGIN                                       23.                    COMBNAME
H2Beam4NA61.out
    0    0          
* Mother volume
RPP SPSNA      -500.0 5000.00 -5000.0 5000.00 -10000.0 100000.00
* TCC2 Cavern
RPP TCC2A      -500.0 500.0 -500.0 500.0 -6000.0 0.1
* TCC2 Cavern
RPP TCC2B      -500.0 500.0 -500.0 500.0 0.0 11100.0
BOX EHN1       -518.4162198 523.92589 37500.017453 1999.9999997 0.0 -.034906585
              0.0 1500.0 0.0 1.0489428804 0.0 60099.999991
BOX TT81A      -389.3587409 -499.8667181 10986.499597 999.90200182 .57382054156
              -13.98776175 0.0 999.15961556 40.988567145 281.39048737
              -823.7894618 20081.140165
BOX TT81B      -109.3642009 319.77029921 30992.998865 999.90200182 .3919350849
              -13.99403929 0.0 999.6080265 27.996309613 22.399242775
              -44.78970564 1599.2161068
BOX TT81C      -85.36491091 361.716045 32500.499313 999.90200182 .18198991036
              -13.99834378 0.0 999.91550009 12.999718763 20.999290102
              -19.49766722 1499.7262653
BOX TT81D      -68.76558091 380.08431053 33886.999508 999.90200182 .55983146483
              -13.98832862 0.0 999.20010748 39.989313599 155.39474675
              -443.8378814 11090.034283
* ------------- Magnet models -----------------------
* MTNH Magnet envelop (+1mm bigger) - includes coils
*   reference magnet positioned at -10.0 m
RPP MTNHVol    -60.1 60.1 -34.6 34.6 -1057.1 -672.9
RPP MTNHFe     -60.0 60.0 -34.5 34.5 -1045.0 -685.0
RPP MTNHVac    -12.0 12.0 -3.0 3.0 -1045.1 -684.9
* MSNH magnet envlope (+1mm bigger) - includes coils
*   reference magnet position at -15.0 m
RPP MSNHVol    -12.62 34.38 -25.8 25.8 -1548.4 -1214.7
RPP MSNHFe     -12.52 34.48 -25.7 25.7 -1540.0 -1220.0
RPP MSNHVac    -5.7 5.7 -3.0 3.0 -1540.1 -1219.9
* MBNV magnet envelop (+1mm bigger) - includes coils
*   reference magnet position at -25.0 m
RPP MBNVVol    -30.0 30.0 -53.5 53.5 -2588.0 -2037.0
RPP MBNVFe     -29.9 29.9 -53.4 53.4 -2562.5 -2062.5
RPP MBNVVac    -3.0 3.0 -6.5 6.5 -2562.6 -2062.4
* MBNH magnet envelop (+1mm bigger) - includes coils
*   reference magnet position at -35.0 m
RPP MBNHVol    -53.5 53.5 -30.0 30.0 -3588.0 -3037.0
RPP MBNHFe     -53.4 53.4 -29.9 29.9 -3562.5 -3062.5
RPP MBNHVac    -6.5 6.5 -3.0 3.0 -3562.6 -3062.4
* QNL magnet envelop (+1mm bigger) - includes coils
*   reference location at z= -40.0m
RPP QNLVol     -30.1 30.1 -40.3 40.3 -4016.2 -3684.8
RPP QNLFe      -30.0 30.0 -40.2 40.2 -4000.0 -3701.0
RCC QNLVac     0.0 0.0 -4000.1 0.0 0.0 299.2 4.0
* QSL magnet envelop (+1mm bigger) - includes coils
*   reference location at z= -45.0m
RPP QSLVol     -16.1 16.1 -26.1 26.1 -4511.5 -4185.0
RPP QSLFe      -16.0 16.0 -26.0 26.0 -4500.0 -4200.0
RCC QSLVac     0.0 0.0 -4500.1 0.0 0.0 300.2 5.0
* QWL magnet envelop (+1mm bigger) - includes coils
*   reference location at z= -50.0m
RPP QWLVol     -33.3 33.3 -46.6 46.6 -5017.9 -4687.3
RPP QWLFe      -33.2 33.2 -46.5 46.5 -5000.0 -4705.2
RCC QWLVac     0.0 0.0 -5000.1 0.0 0.0 295.2 5.0
* ------------- Beam magnets ----------------------------
* MTNH replica
BOX B3Ta       -63.05967407 -34.6 123.07242561 120.19952886 0.0 -.3365423941 0.0
              69.2 0.0 1.0757037254 0.0 384.19849409
* MTNH replica
BOX B3Tb       -67.38133139 -34.6 543.41212286 120.19575945 0.0 -1.009658586 0.0
              69.2 0.0 3.2272115521 0.0 384.18644576
* MSNH replica
BOX B1         -8.832417884 -25.8 2556.7604099 46.996269157 0.0 -.5921869373 0.0
              51.6 0.0 4.2045272551 0.0 333.67351101
* MSNH replica
BOX B11        -6.366650459 -25.8 2911.7774944 46.995394086 0.0 -.6579777565 0.0
              51.6 0.0 4.6716420714 0.0 333.66729801
* QNL replica
BOX Q2         -44.93194953 -40.3 3905.868966 60.19410051 0.0 -.8427715094 0.0
              80.6 0.0 4.6394431599 0.0 331.3675234
* QSL replica
BOX Q1         -32.63828709 -26.1 4283.8855112 32.196844459 0.0 -.4507847609 0.0
              52.2 0.0 4.5708454789 0.0 326.4680036
* QNL replica
BOX Q3         -29.53294953 -40.3 5005.761966 60.19410051 0.0 -.8427715094 0.0
              80.6 0.0 4.6394431599 0.0 331.3675234
* MBNV replica
BOX B2a        -7.796213631 -44.65378404 5051.1407539 59.994120109 0.0
              -.8399716041 .00512006005 106.99937496 .36569509725 7.7136941707
              -1.88334343 550.94278463
* MBNV replica
BOX B2b        .12435962726 -24.33309215 5616.8345324 59.994120109 0.0
              -.8399716041 .01535967944 106.99437484 1.0970495298 7.7133337069
              -5.649846113 550.91703887
* MBNV replica
BOX B2c        8.0456263241 -.2134893413 6182.6183629 59.994120109 0.0
              -.8399716041 .02559727407 106.98437649 1.8282593452 7.7126129159
              -9.415604013 550.8655571
* MBNV replica
BOX B3a        17.578586098 30.108835373 6863.4311899 59.994120109 0.0
              -.8399716041 .03583497968 106.96937783 2.5594770875 7.7115316472
              -13.18140274 550.78832858
* MBNV replica
BOX B3b        25.501238962 62.028377461 7429.315024 59.994120109 0.0
              -.8399716041 .04606970413 106.94938338 3.2904819042 7.7100902273
              -16.94610489 550.68537663
* MBNV replica
BOX B3c        33.42458526 97.748947907 7995.2108899 59.994120109 0.0
              -.8399716041 .0563035826 106.92438899 4.0214262966 7.7082883558
              -20.71049585 550.55667978
* QNL replica
BOX Q4         24.428200349 209.60820352 8859.8668464 60.19410051 0.0
              -.8427715094 .04626567731 80.532218878 3.3044790894 4.6355415884
              -13.58823448 331.08885762
* QNL replica
BOX Q5         40.302200349 256.10820352 9993.6018464 60.19410051 0.0
              -.8427715094 .04626567731 80.532218878 3.3044790894 4.6355415884
              -13.58823448 331.08885762
* QWL replica
BOX Q6a        73.199364725 437.78572387 13571.864823 66.593473321 0.0
              -.9323684805 .05349827699 93.121622822 3.8210601878 4.6243513854
              -13.55543246 330.28960871
* QNL replica
BOX Q7a        180.50220035 549.80820352 17150.275846 60.19410051 0.0
              -.8427715094 .04626567731 80.532218878 3.3044790894 4.6355415884
              -13.58823448 331.08885762
* QNL replica
BOX Q8a        156.37520035 596.30820352 18284.010846 60.19410051 0.0
              -.8427715094 .04626567731 80.532218878 3.3044790894 4.6355415884
              -13.58823448 331.08885762
* QNL replica
BOX Q8b        210.28420035 754.30820352 22134.392846 60.19410051 0.0
              -.8427715094 .04626567731 80.532218878 3.3044790894 4.6355415884
              -13.58823448 331.08885762
* QNL replica
BOX Q7b        226.15720035 800.90820352 23268.126846 60.19410051 0.0
              -.8427715094 .04626567731 80.532218878 3.3044790894 4.6355415884
              -13.58823448 331.08885762
* QWL replica
BOX Q6b        259.05536472 982.58572387 26846.390823 66.593473321 0.0
              -.9323684805 .05349827699 93.121622822 3.8210601878 4.6243513854
              -13.55543246 330.28960871
* QNL replica
BOX Q9a        326.35720035 1094.6082035 30424.801846 60.19410051 0.0
              -.8427715094 .04626567731 80.532218878 3.3044790894 4.6355415884
              -13.58823448 331.08885762
* QNL replica
BOX Q10a       342.23020035 1141.1082035 31558.535846 60.19410051 0.0
              -.8427715094 .04626567731 80.532218878 3.3044790894 4.6355415884
              -13.58823448 331.08885762
* MBNV replica
BOX B4a        363.78691226 1065.3758979 31602.07783 59.994120109 0.0
              -.8399716041 .0563035826 106.92438899 4.0214262966 7.7082883558
              -20.71049585 550.55667978
* MBNV replica
BOX B4b        371.85723896 1068.2554275 32167.407884 59.994120109 0.0
              -.8399716041 .04606970413 106.94938338 3.2904819042 7.7100902273
              -16.94610489 550.68537663
* MBNV replica
BOX B4c        379.77558597 1067.3331847 32732.985961 59.994120109 0.0
              -.8399716041 .03583341148 106.96938051 2.5593650804 7.7115318404
              -13.1808259 550.78834238
* MBNV replica
BOX B5a        389.30662632 1064.9137007 33413.751063 59.994120109 0.0
              -.8399716041 .02559727407 106.98437649 1.8282593452 7.7126129159
              -9.415604013 550.8655571
* MBNV replica
BOX B5b        397.23136002 1056.1913573 33979.747191 59.994120109 0.0
              -.8399716041 .01535811088 106.99437598 1.0969374966 7.7133337898
              -5.649269138 550.91704479
* MBNV replica
BOX B5c        405.15778637 1043.673466 34545.913284 59.994120109 0.0
              -.8399716041 .00512006005 106.99937496 .36569509725 7.7136941707
              -1.88334343 550.94278463
* QNL replica
BOX Q10b       396.14705047 1049.3 35409.443966 60.19410051 0.0 -.8427715094 0.0
              80.6 0.0 4.6394431599 0.0 331.3675234
* QNL replica
BOX Q9b        412.03405047 1049.3 36544.131966 60.19410051 0.0 -.8427715094 0.0
              80.6 0.0 4.6394431599 0.0 331.3675234
* QNL replica
BOX Q11        462.17605047 1049.3 40125.480966 60.19410051 0.0 -.8427715094 0.0
              80.6 0.0 4.6394431599 0.0 331.3675234
BOX B6         436.73552906 1059.6 40248.774793 106.98453882 0.0 -1.818915651
              0.0 60.0 0.0 9.3665656397 0.0 550.92038213
BOX Q13        530.11706563 1049.3 44841.669182 60.187960309 0.0 -1.203924367
              0.0 80.6 0.0 6.6275836431 0.0 331.3337217
BOX Q14        526.33896411 1043.0 45812.839512 66.586680341 0.0 -1.331916327
              0.0 93.2 0.0 6.6115846482 0.0 330.5338817
BOX Q15        551.27396411 1043.0 47059.389512 66.586680341 0.0 -1.331916327
              0.0 93.2 0.0 6.6115846482 0.0 330.5338817
BOX Q16        594.04506563 1049.3 48037.630182 60.187960309 0.0 -1.203924367
              0.0 80.6 0.0 6.6275836431 0.0 331.3337217
BOX Q17        613.16306563 1049.3 48993.439182 60.187960309 0.0 -1.203924367
              0.0 80.6 0.0 6.6275836431 0.0 331.3337217
BOX Q18        638.76206563 1049.3 50273.183182 60.187960309 0.0 -1.203924367
              0.0 80.6 0.0 6.6275836431 0.0 331.3337217
END
NArea        5  +SPSNA -TCC2A -TCC2B
#if 0
TCC2Cav      5  +TCC2A -MTNHVol -MSNHVol -MBNVVol -MBNHVol -QNLVol -QSLVol -QWLVol
#endif
TCC2Cav      5  |  +TCC2A -MTNHVol -MSNHVol -MBNVVol -MBNHVol -QNLVol -QSLVol -QWLVol
               |  +TCC2B -B3Ta -B3Tb -B1 -B11 -Q2 -Q1
#if 0
NArea        5  +SPSNA -MTNHVol -MSNHVol -MBNVVol -MBNHVol -QNLVol -QSLVol -QWLVol
#endif
#if 0
NArea        5  +SPSNA -TCC2A -TT81A -TT81B -TT81C -TT81D -EHN1
#endif
#if 0
TCC2Cav      5  |  +TCC2A -MTNHVol -MSNHVol -MBNVVol -MBNHVol -QNLVol -QSLVol -QWLVol
               |  +TCC2B -B3Ta -B3Tb -B1 -B11 -Q2 -Q1 -Q3 -B2a -B2b -B2c -B3a -B3b
               -B3c -Q4 -Q5
               |  +TT81A -Q6a -Q7a -Q8a -Q9a
               |  +TT81B -Q10a -B4a -B4b -B4c -B5a -B5b -B5c -Q10b -Q9b
               |  +TT81C -Q11 -B6 -Q13
               |  +TT81D -Q14 -Q15 -Q16
               |  +EHN1 -Q17 -Q18
#endif
#if 0
TT81Down     5  +TT81A -Q6a -Q7a -Q8a -Q8b -Q7b -Q6b -Q9a
#endif
#if 0
TT81Up       5  +TT81B +TT81C +TT81D -Q10a -B4a -B4b -B4c -B5a -B5b -B5c -Q10b -Q9b
#endif
#if 0
EHN1Hall     5  +EHN1 -Q11 -B6 -Q13 -Q14 -Q15 -Q16 -Q17 -Q18
#endif
* MTNH Magnet
MTNHEnv      5  +MTNHVol -MTNHFe
MTNHFe       5  +MTNHFe -MTNHVac
MTNHVac      5  +MTNHFe +MTNHVac
* MSNH Magnet
MSNHEnv      5  +MSNHVol -MSNHFe
MSNHFe       5  +MSNHFe -MSNHVac
MSNHVac      5  +MSNHFe +MSNHVac
* MBNV Magnet
MBNVEnv      5  +MBNVVol -MBNVFe
MBNVFe       5  +MBNVFe -MBNVVac
MBNVVac      5  +MBNVFe +MBNVVac
* MBNH Magnet
MBNHEnv      5  +MBNHVol -MBNHFe
MBNHFe       5  +MBNHFe -MBNHVac
MBNHVac      5  +MBNHFe +MBNHVac
* QNL Magnet
QNLEnv       5  +QNLVol -QNLFe
QNLFe        5  +QNLFe -QNLVac
QNLVac       5  +QNLFe +QNLVac
* QSL Magnet
QSLEnv       5  +QSLVol -QSLFe
QSLFe        5  +QSLFe -QSLVac
QSLVac       5  +QSLFe +QSLVac
* QWL Magnet
QWLEnv       5  +QWLVol -QWLFe
QWLFe        5  +QWLFe -QWLVac
QWLVac       5  +QWLFe +QWLVac
B3Ta         5  +B3Ta
B3Tb         5  +B3Tb
B1           5  +B1
B11          5  +B11
Q2           5  +Q2
Q1           5  +Q1
#if 0
Q3           5  +Q3
#endif
#if 0
B2a          5  +B2a
#endif
#if 0
B2b          5  +B2b
#endif
#if 0
B2c          5  +B2c
#endif
#if 0
B3a          5  +B3a
#endif
#if 0
B3b          5  +B3b
#endif
#if 0
B3c          5  +B3c
#endif
#if 0
Q4           5  +Q4
#endif
#if 0
Q5           5  +Q5
#endif
#if 0
Q6a          5  +Q6a
#endif
#if 0
Q7a          5  +Q7a
#endif
#if 0
Q8a          5  +Q8a
#endif
#if 0
Q8b          5  +Q8b
#endif
#if 0
Q7b          5  +Q7b
#endif
#if 0
Q6b          5  +Q6b
#endif
#if 0
Q9a          5  +Q9a
#endif
#if 0
Q10a         5  +Q10a
#endif
#if 0
B4a          5  +B4a
#endif
#if 0
B4b          5  +B4b
#endif
#if 0
B4c          5  +B4c
#endif
#if 0
B5a          5  +B5a
#endif
#if 0
B5b          5  +B5b
#endif
#if 0
B5c          5  +B5c
#endif
#if 0
Q10b         5  +Q10b
#endif
#if 0
Q9b          5  +Q9b
#endif
#if 0
Q11          5  +Q11
#endif
#if 0
B6           5  +B6
#endif
#if 0
Q13          5  +Q13
#endif
#if 0
Q14          5  +Q14
#endif
#if 0
Q15          5  +Q15
#endif
#if 0
Q16          5  +Q16
#endif
#if 0
Q17          5  +Q17
#endif
#if 0
Q18          5  +Q18
#endif
END
#if 0
LATTICE         B3Ta                          B3Ta                    B3Ta
#endif
#if 0
LATTICE         B3Tb                          B3Tb                    B3Tb
#endif
#if 0
LATTICE           B1                            B1                    B1
#endif
#if 0
LATTICE          B11                           B11                    B11
#endif
#if 0
LATTICE           Q2                            Q2                    Q2
#endif
#if 0
LATTICE           Q1                            Q1                    Q1
#endif
#if 0
LATTICE           Q3                            Q3                    Q3
#endif
#if 0
LATTICE          B2a                           B2a                    B2a
#endif
#if 0
LATTICE          B2b                           B2b                    B2b
#endif
#if 0
LATTICE          B2c                           B2c                    B2c
#endif
#if 0
LATTICE          B3a                           B3a                    B2a
#endif
#if 0
LATTICE          B3b                           B3b                    B2b
#endif
#if 0
LATTICE          B3c                           B3c                    B3c
#endif
#if 0
LATTICE           Q4                            Q4                    Q4
#endif
#if 0
LATTICE           Q5                            Q5                    Q5
#endif
#if 0
LATTICE          Q6a                           Q6a                    Q6a
#endif
#if 0
LATTICE          Q7a                           Q7a                    Q7a
#endif
#if 0
LATTICE          Q8a                           Q8a                    Q8a
#endif
#if 0
LATTICE          Q8b                           Q8b                    Q8b
#endif
#if 0
LATTICE          Q7b                           Q7b                    Q7b
#endif
#if 0
LATTICE          Q6b                           Q6b                    Q6b
#endif
#if 0
LATTICE          Q9a                           Q9a                    Q9a
#endif
#if 0
LATTICE         Q10a                          Q10a                    Q10a
#endif
#if 0
LATTICE          B4a                           B4a                    B4a
#endif
#if 0
LATTICE          B4b                           B4b                    B4b
#endif
#if 0
LATTICE          B4c                           B4c                    B4c
#endif
#if 0
LATTICE          B5a                           B5a                    B5a
#endif
#if 0
LATTICE          B5b                           B5b                    B5b
#endif
#if 0
LATTICE          B5c                           B5c                    B5c
#endif
#if 0
LATTICE         Q10b                          Q10b                    Q10b
#endif
#if 0
LATTICE          Q9b                           Q9b                    Q9b
#endif
#if 0
LATTICE          Q11                           Q11                    Q11
#endif
#if 0
LATTICE           B6                            B6                    B6
#endif
#if 0
LATTICE          Q13                           Q13                    Q13
#endif
#if 0
LATTICE          Q14                           Q14                    Q14
#endif
#if 0
LATTICE          Q15                           Q15                    Q15
#endif
#if 0
LATTICE          Q16                           Q16                    Q16
#endif
#if 0
LATTICE          Q17                           Q17                    Q17
#endif
#if 0
LATTICE          Q18                           Q18                    Q18
#endif
GEOEND
#if 0
MATERIAL          1.    1.0079    9.0D-6            HYDROGEN          Beam
#endif
#if 0
LOW-MAT         Beam        1.       -5.      296.                    HYDROGEN
#endif
#if 0
MAT-PROP          1.                          Beam                    USERDIRE
#endif
* ..+....1....+....2....+....3....+....4....+....5....+....6....+....7..
ASSIGNMA    BLCKHOLE     NArea
#if 0
ASSIGNMA      VACUUM   TCC2Cav
#endif
ASSIGNMA        IRON    MBNHFe
ASSIGNMA        IRON    MBNVFe
ASSIGNMA        IRON    MSNHFe
ASSIGNMA        IRON    MTNHFe
ASSIGNMA        IRON     QNLFe
ASSIGNMA        IRON     QSLFe
ASSIGNMA        IRON     QWLFe
ASSIGNMA      VACUUM   MBNHVac
ASSIGNMA      VACUUM   MBNVVac
ASSIGNMA      VACUUM   MSNHVac
ASSIGNMA      VACUUM   MTNHVac
ASSIGNMA      VACUUM    QNLVac
ASSIGNMA      VACUUM    QSLVac
ASSIGNMA      VACUUM    QWLVac
EMF                                                                   EMF-OFF
ROT-DEFI        200.             -.16042                              B3Ta
ROT-DEFI         0.0                          -0.0      -0.0   -1180.0B3Ta
ROT-DEFI        200.             -.48128                              B3Tb
ROT-DEFI         0.0                        -1.596      -0.0  -1599.97B3Tb
ROT-DEFI        200.               -.721                              B1
ROT-DEFI         0.0                       -23.296      -0.0 -4104.878B1
ROT-DEFI        200.             -.80214                              B11
ROT-DEFI         0.0                       -27.929      -0.0 -4459.849B11
ROT-DEFI         0.0                        -41.39      -0.0 -7921.254Q2
ROT-DEFI        200.             -.80214                              Q2
ROT-DEFI         0.0                        -41.39      -0.0 -7921.254Q2
ROT-DEFI        200.             -.80214                              Q1
ROT-DEFI         0.0                       -46.619      -0.0 -8794.718Q1
ROT-DEFI        200.             -.80214                              Q3
ROT-DEFI         0.0                       -56.789      -0.0 -9021.147Q3
ROT-DEFI        100.             -.19584                              B2a
ROT-DEFI        200.             -.80214                              B2a
ROT-DEFI         0.0                     -58.43397      -0.0-7638.6349B2a
ROT-DEFI        100.             -.58751                              B2b
ROT-DEFI        200.             -.80214                              B2b
ROT-DEFI         0.0                     -66.35797  -2.62725-8204.5734B2b
ROT-DEFI        100.             -.97913                              B2c
ROT-DEFI        200.             -.80214                              B2c
ROT-DEFI         0.0                     -74.28097  -9.05441 -8770.481B2c
ROT-DEFI        100.             -1.3708                              B3a
ROT-DEFI        200.             -.80214                              B3a
ROT-DEFI         0.0                     -83.81397  -21.6816-9451.2967B3a
ROT-DEFI        100.            -1.76242                              B3b
ROT-DEFI        200.             -.80214                              B3b
ROT-DEFI         0.0                     -91.73497 -35.90866-10017.063B3b
ROT-DEFI        100.            -2.15409                              B3c
ROT-DEFI        200.             -.80214                              B3c
ROT-DEFI         0.0                     -99.65497 -53.93571-10582.719B3c
ROT-DEFI        100.            -2.34993                              Q4
ROT-DEFI        200.             -.80214                              Q4
ROT-DEFI         0.0                      -110.726     -85.2-12873.527Q4
ROT-DEFI        100.            -2.34993                              Q5
ROT-DEFI        200.             -.80214                              Q5
ROT-DEFI         0.0                        -126.6    -131.7-14007.262Q5
ROT-DEFI        100.            -2.34993                              Q7a
ROT-DEFI        200.             -.80214                              Q7a
ROT-DEFI         0.0                        -266.8    -425.4-21163.936Q7a
ROT-DEFI        100.            -2.34993                              Q6a
ROT-DEFI        200.             -.80214                              Q6a
ROT-DEFI         0.0                      -176.712    -278.6-18586.498Q6a
ROT-DEFI        100.            -2.34993                              Q8a
ROT-DEFI        200.             -.80214                              Q8a
ROT-DEFI         0.0                      -242.673    -471.9-22297.671Q8a
ROT-DEFI        100.            -2.34993                              Q8b
ROT-DEFI        200.             -.80214                              Q8b
ROT-DEFI         0.0                      -296.582    -629.9-26148.053Q8b
ROT-DEFI        100.            -2.34993                              Q7b
ROT-DEFI        200.             -.80214                              Q7b
ROT-DEFI         0.0                      -312.455    -676.5-27281.787Q7b
ROT-DEFI        100.            -2.34993                              Q6b
ROT-DEFI        200.             -.80214                              Q6b
ROT-DEFI         0.0                      -362.568    -823.4-31861.024Q6b
ROT-DEFI        100.            -2.34993                              Q9a
ROT-DEFI        200.             -.80214                              Q9a
ROT-DEFI         0.0                      -412.655    -970.2-34438.462Q9a
ROT-DEFI        100.            -2.34993                              Q10a
ROT-DEFI        200.             -.80214                              Q10a
ROT-DEFI         0.0                      -428.528   -1016.7-35572.196Q10a
ROT-DEFI        100.            -2.15409                              B4a
ROT-DEFI        200.             -.80214                              B4a
ROT-DEFI         0.0                     -430.0173-1021.5627-34189.586B4a
ROT-DEFI        100.            -1.76242                              B4b
ROT-DEFI        200.             -.80214                              B4b
ROT-DEFI         0.0                    -438.09097-1042.1357-34755.155B4b
ROT-DEFI        100.            -1.37074                              B4c
ROT-DEFI        200.             -.80214                              B4c
ROT-DEFI         0.0                    -446.01097-1058.9087-35320.852B4c
ROT-DEFI        100.             -.97913                              B5a
ROT-DEFI        200.             -.80214                              B5a
ROT-DEFI         0.0                    -455.54197-1074.1816-36001.614B5a
ROT-DEFI        100.             -.58745                              B5b
ROT-DEFI        200.             -.80214                              B5b
ROT-DEFI         0.0                    -463.46497-1083.1544-36567.486B5b
ROT-DEFI        100.             -.19584                              B5c
ROT-DEFI        200.             -.80214                              B5c
ROT-DEFI         0.0                    -471.38797-1088.3273-37133.407B5c
ROT-DEFI        200.             -.80214                              Q10b
ROT-DEFI         0.0                      -482.469   -1089.6-39424.829Q10b
ROT-DEFI        200.             -.80214                              Q9b
ROT-DEFI         0.0                      -498.356   -1089.6-40559.517Q9b
ROT-DEFI        200.             -.80214                              Q11
ROT-DEFI         0.0                      -548.498   -1089.6-44140.866Q11
ROT-DEFI        200.             -.97403                              B6
ROT-DEFI         0.0                    -551.22097   -1089.6-43835.347B6
ROT-DEFI        200.            -1.14592                              Q13
ROT-DEFI         0.0                       -640.53   -1089.6-48856.464Q13
ROT-DEFI        200.            -1.14592                              Q14
ROT-DEFI         0.0                      -659.984   -1089.6 -50829.07Q14
ROT-DEFI        200.            -1.14592                              Q15
ROT-DEFI         0.0                      -684.919   -1089.6 -52075.62Q15
ROT-DEFI        200.            -1.14592                              Q16
ROT-DEFI         0.0                      -704.458   -1089.6-52052.425Q16
ROT-DEFI        200.            -1.14592                              Q17
ROT-DEFI         0.0                      -723.576   -1089.6-53008.234Q17
ROT-DEFI        200.            -1.14592                              Q18
ROT-DEFI         0.0                      -749.175   -1089.6-54287.978Q18
USRBDX          109.  ALL-PART       21.        T2      B2B3      10.0Psel
USRBDX        10000.      1D-3      200.                              &
USRBDX          109.  ALL-PART       22.    Filter      NA61      10.0exphall
USRBDX       10000.0      1D-3     200.0                              &
USERWEIG                              3.                 0.0
SCORE       ALL-PART
RANDOMIZ         1.0
START         50000.                                      1.
STOP
